(declare-const a Real)
(declare-const b Real)
(declare-const c Real)
(assert (= (+ a b c) 3))
(assert (>= a 0))
(assert (>= b 0))
(assert (>= c 0))
(assert (not (<= (+ (* -2 (pow a (/ 3 2)) (pow (* b c (+ (* a b (pow c 3)) (* a c (pow b 3)))) (/ 1 2))) (* a b c (+ (* a b) (* a c) (* b c)))) 0)))
(check-sat)
(get-model)
(exit)